WARNING: for repeatability, setting FPU to use double precision
============================[ Problem Statistics ]=============================
|                                                                             |
|  Number of variables:          1950                                         |
|  Number of clauses:            9516                                         |
|  Parse time:                   0.00 s                                       |
|                                                                             |
============================[ Search Statistics ]==============================
| Conflicts |          ORIGINAL         |          LEARNT          | Progress |
|           |    Vars  Clauses Literals |    Limit  Clauses Lit/Cl |          |
===============================================================================
|       100 |    1950     9516    34056 |     3489      100      5 |  0.000 % |
|       250 |    1950     9516    34056 |     3838      250      7 |  0.000 % |
|       475 |    1950     9516    34056 |     4221      475     13 |  0.000 % |
|       812 |    1950     9516    34056 |     4644      812     15 |  0.000 % |
|      1318 |    1950     9516    34056 |     5108     1318     18 |  0.000 % |
|      2077 |    1950     9516    34056 |     5619     2077     18 |  0.000 % |
|      3216 |    1950     9516    34056 |     6181     3216     20 |  0.000 % |
|      4924 |    1950     9516    34056 |     6799     4924     20 |  0.000 % |
|      7486 |    1950     9516    34056 |     7479     3776     20 |  0.000 % |
|     11330 |    1950     9516    34056 |     8227     3853     18 |  0.000 % |
|     17096 |    1950     9516    34056 |     9050     5331     21 |  0.000 % |
|     25745 |    1950     9516    34056 |     9955     4785     19 |  0.000 % |
|     38719 |    1950     9516    34056 |    10950     7668     20 |  0.000 % |
===============================================================================
restarts              : 127
conflicts             : 38910          (58608 /sec)
decisions             : 79131          (0.00 % random) (119191 /sec)
propagations          : 3701669        (5575651 /sec)
conflict literals     : 830057         (10.56 % deleted)
Memory used           : 7.00 MB
CPU time              : 0.663899 s

SATISFIABLE
